!-Generator cli-anything-openstudio v0.1.0
!-NOTE: Auto-generated from brief.json — do not edit manually

  Version,
    26.1;                    !- Version Identifier

  Timestep,
    6;                       !- Number of Timesteps per Hour

  Building,
    03-coffee-shop,         !- Name
    0,            !- North Axis (deg)
    City,                    !- Terrain
    0.04,                    !- Loads Convergence Tolerance Value
    0.4,                     !- Temperature Convergence Tolerance Value (deltaC)
    FullExteriorWithReflections,  !- Solar Distribution
    25,                      !- Maximum Number of Warmup Days
    6;                       !- Minimum Number of Warmup Days

  GlobalGeometryRules,
    UpperLeftCorner,         !- Starting Vertex Position
    Counterclockwise,        !- Vertex Entry Direction
    Relative;                !- Coordinate System

  SurfaceConvectionAlgorithm:Inside,
    TARP;

  SurfaceConvectionAlgorithm:Outside,
    DOE-2;

  HeatBalanceAlgorithm,
    ConductionTransferFunction;

  SimulationControl,
    No,                      !- Do Zone Sizing Calculation
    No,                      !- Do System Sizing Calculation
    No,                      !- Do Plant Sizing Calculation
    Yes,                     !- Run Simulation for Sizing Periods
    Yes;                     !- Run Simulation for Weather File Run Periods

  RunPeriod,
    AnnualRun,               !- Name
    1,                       !- Begin Month
    1,                       !- Begin Day of Month
    ,                        !- Begin Year
    12,                      !- End Month
    31,                      !- End Day of Month
    ,                        !- End Year
    Monday,                  !- Day of Week for Start Day
    Yes,                     !- Use Weather File Holidays and Special Days
    Yes,                     !- Use Weather File Daylight Saving Period
    No,                      !- Apply Weekend Holiday Rule
    Yes,                     !- Use Weather File Rain Indicators
    Yes;                     !- Use Weather File Snow Indicators


  Output:VariableDictionary,
    Regular;

  OutputControl:Table:Style,
    HTML;


! ===== MATERIALS =====

  Material,
    Plaster_Interior,              !- Name
    MediumRough,             !- Roughness
    0.02,  !- Thickness (m)
    0.8, !- Conductivity (W/m-K)
    1600,  !- Density (kg/m3)
    1000;  !- Specific Heat (J/kg-K)

  Material,
    Block,              !- Name
    MediumRough,             !- Roughness
    0.2,  !- Thickness (m)
    0.58, !- Conductivity (W/m-K)
    1400,  !- Density (kg/m3)
    1000;  !- Specific Heat (J/kg-K)

  Material,
    EPS_Insulation,              !- Name
    MediumRough,             !- Roughness
    0.05,  !- Thickness (m)
    0.04, !- Conductivity (W/m-K)
    25,  !- Density (kg/m3)
    1400;  !- Specific Heat (J/kg-K)

  Material,
    Render_Exterior,              !- Name
    MediumRough,             !- Roughness
    0.01,  !- Thickness (m)
    0.9, !- Conductivity (W/m-K)
    1800,  !- Density (kg/m3)
    1000;  !- Specific Heat (J/kg-K)

  Material,
    Plaster,              !- Name
    MediumRough,             !- Roughness
    0.015,  !- Thickness (m)
    0.8, !- Conductivity (W/m-K)
    1500,  !- Density (kg/m3)
    1000;  !- Specific Heat (J/kg-K)

  Material,
    Brick_120mm,              !- Name
    MediumRough,             !- Roughness
    0.12,  !- Thickness (m)
    0.58, !- Conductivity (W/m-K)
    1500,  !- Density (kg/m3)
    1000;  !- Specific Heat (J/kg-K)

  Material,
    Waterproof_Membrane,              !- Name
    MediumRough,             !- Roughness
    0.005,  !- Thickness (m)
    0.23, !- Conductivity (W/m-K)
    1100,  !- Density (kg/m3)
    1000;  !- Specific Heat (J/kg-K)

  Material,
    Screed_Slope,              !- Name
    MediumRough,             !- Roughness
    0.04,  !- Thickness (m)
    1.4, !- Conductivity (W/m-K)
    2000,  !- Density (kg/m3)
    1000;  !- Specific Heat (J/kg-K)

  Material,
    XPS_Insulation,              !- Name
    MediumRough,             !- Roughness
    0.06,  !- Thickness (m)
    0.035, !- Conductivity (W/m-K)
    35,  !- Density (kg/m3)
    1400;  !- Specific Heat (J/kg-K)

  Material,
    Concrete_Slab,              !- Name
    MediumRough,             !- Roughness
    0.12,  !- Thickness (m)
    1.4, !- Conductivity (W/m-K)
    2400,  !- Density (kg/m3)
    920;  !- Specific Heat (J/kg-K)

  Material,
    Plaster_Ceiling,              !- Name
    MediumRough,             !- Roughness
    0.015,  !- Thickness (m)
    0.8, !- Conductivity (W/m-K)
    1600,  !- Density (kg/m3)
    1000;  !- Specific Heat (J/kg-K)

  Material,
    Tile,              !- Name
    MediumRough,             !- Roughness
    0.01,  !- Thickness (m)
    1.0, !- Conductivity (W/m-K)
    1500,  !- Density (kg/m3)
    1000;  !- Specific Heat (J/kg-K)

  Material,
    Screed,              !- Name
    MediumRough,             !- Roughness
    0.05,  !- Thickness (m)
    1.4, !- Conductivity (W/m-K)
    1500,  !- Density (kg/m3)
    1000;  !- Specific Heat (J/kg-K)

  Material,
    Concrete_120mm,              !- Name
    MediumRough,             !- Roughness
    0.12,  !- Thickness (m)
    1.4, !- Conductivity (W/m-K)
    1500,  !- Density (kg/m3)
    1000;  !- Specific Heat (J/kg-K)


! ===== CONSTRUCTIONS =====

  Construction,
    ExteriorWall,              !- Name
    Plaster_Interior,              !- Layer 1
    Block,              !- Layer 2
    EPS_Insulation,              !- Layer 3
    Render_Exterior;              !- Layer 4

  Construction,
    InteriorWall,              !- Name
    Plaster,              !- Layer 1
    Brick_120mm,              !- Layer 2
    Plaster;              !- Layer 3

  Construction,
    Roof,              !- Name
    Waterproof_Membrane,              !- Layer 1
    Screed_Slope,              !- Layer 2
    XPS_Insulation,              !- Layer 3
    Concrete_Slab,              !- Layer 4
    Plaster_Ceiling;              !- Layer 5

  Construction,
    ConcreteFloor,              !- Name
    Tile,              !- Layer 1
    Screed,              !- Layer 2
    Concrete_120mm;              !- Layer 3


! ===== WINDOW MATERIAL =====

  WindowMaterial:SimpleGlazingSystem,
    SimpleWindow,            !- Name
    2.0,                     !- U-Factor (W/m2-K)
    0.6,                  !- Solar Heat Gain Coefficient
    0.75;                    !- Visible Transmittance

  Construction,
    ExteriorWindow,          !- Name
    SimpleWindow;            !- Outside Layer


! ===== ZONES AND GEOMETRY =====

  Zone,
    F1_zone,          !- Name
    0,                     !- Direction of Relative North (deg)
    0.0000,        !- X Origin (m)
    0,                     !- Y Origin (m)
    0.0000,              !- Z Origin (m)
    1,                     !- Type
    1,                     !- Multiplier
    autocalculate,         !- Ceiling Height (m)
    autocalculate;         !- Volume (m3)

  BuildingSurface:Detailed,
    F1_zone_Floor,            !- Name
    Floor,                   !- Surface Type
    ConcreteFloor,                 !- Construction Name
    F1_zone,                  !- Zone Name
    ,                        !- Space Name
    Ground,                    !- Outside Boundary Condition
    ,                !- Outside Boundary Condition Object
    NoSun,                   !- Sun Exposure
    NoWind,                  !- Wind Exposure
    0.0,                     !- View Factor to Ground
    4,                       !- Number of Vertices
    0.0000, 0.00, 0.0000,
    0.0000, 8.0000, 0.0000,
    0.7500, 8.0000, 0.0000,
    0.7500, 0.00, 0.0000;

  BuildingSurface:Detailed,
    F1_zone_Roof,             !- Name
    Roof,                    !- Surface Type
    Roof,                 !- Construction Name
    F1_zone,                  !- Zone Name
    ,                        !- Space Name
    Outdoors,                !- Outside Boundary Condition
    ,                        !- Outside Boundary Condition Object
    SunExposed,              !- Sun Exposure
    WindExposed,             !- Wind Exposure
    0.0,                     !- View Factor to Ground
    4,                       !- Number of Vertices
    0.0000, 8.0000, 3.5000,
    0.7500, 8.0000, 3.5000,
    0.7500, 0.00, 3.5000,
    0.0000, 0.00, 3.5000;

  BuildingSurface:Detailed,
    F1_zone_SouthWall,             !- Name
    Wall,                    !- Surface Type
    ExteriorWall,                 !- Construction Name
    F1_zone,                  !- Zone Name
    ,                        !- Space Name
    Outdoors,                    !- Outside Boundary Condition
    ,                !- Outside Boundary Condition Object
    SunExposed,                   !- Sun Exposure
    WindExposed,                  !- Wind Exposure
    autocalculate,           !- View Factor to Ground
    4,                       !- Number of Vertices
    0.0000, 0.00, 3.5000,
    0.7500, 0.00, 3.5000,
    0.7500, 0.00, 0.0000,
    0.0000, 0.00, 0.0000;
  FenestrationSurface:Detailed,
    F1_zone_SouthWindow,              !- Name
    Window,                  !- Surface Type
    ExteriorWindow,          !- Construction Name
    F1_zone_SouthWall,             !- Building Surface Name
    ,                        !- Outside Boundary Condition Object
    autocalculate,           !- View Factor to Ground
    ,                        !- Frame and Divider Name
    1,                       !- Multiplier
    4,                       !- Number of Vertices
    0.2625, 0.00, 2.6600,
    0.4875, 0.00, 2.6600,
    0.4875, 0.00, 0.5600,
    0.2625, 0.00, 0.5600;

  BuildingSurface:Detailed,
    F1_zone_NorthWall,             !- Name
    Wall,                    !- Surface Type
    ExteriorWall,                 !- Construction Name
    F1_zone,                  !- Zone Name
    ,                        !- Space Name
    Outdoors,                    !- Outside Boundary Condition
    ,                !- Outside Boundary Condition Object
    SunExposed,                   !- Sun Exposure
    WindExposed,                  !- Wind Exposure
    autocalculate,           !- View Factor to Ground
    4,                       !- Number of Vertices
    0.7500, 8.0000, 3.5000,
    0.0000, 8.0000, 3.5000,
    0.0000, 8.0000, 0.0000,
    0.7500, 8.0000, 0.0000;
  FenestrationSurface:Detailed,
    F1_zone_NorthWindow,              !- Name
    Window,                  !- Surface Type
    ExteriorWindow,          !- Construction Name
    F1_zone_NorthWall,             !- Building Surface Name
    ,                        !- Outside Boundary Condition Object
    autocalculate,           !- View Factor to Ground
    ,                        !- Frame and Divider Name
    1,                       !- Multiplier
    4,                       !- Number of Vertices
    0.4875, 8.0000, 2.6600,
    0.2625, 8.0000, 2.6600,
    0.2625, 8.0000, 0.5600,
    0.4875, 8.0000, 0.5600;

  BuildingSurface:Detailed,
    F1_zone_EastWall,             !- Name
    Wall,                    !- Surface Type
    InteriorWall,                 !- Construction Name
    F1_zone,                  !- Zone Name
    ,                        !- Space Name
    Adiabatic,                    !- Outside Boundary Condition
    ,                !- Outside Boundary Condition Object
    NoSun,                   !- Sun Exposure
    NoWind,                  !- Wind Exposure
    autocalculate,           !- View Factor to Ground
    4,                       !- Number of Vertices
    0.7500, 0.00, 3.5000,
    0.7500, 8.0000, 3.5000,
    0.7500, 8.0000, 0.0000,
    0.7500, 0.00, 0.0000;

  BuildingSurface:Detailed,
    F1_zone_WestWall,             !- Name
    Wall,                    !- Surface Type
    ExteriorWall,                 !- Construction Name
    F1_zone,                  !- Zone Name
    ,                        !- Space Name
    Outdoors,                    !- Outside Boundary Condition
    ,                !- Outside Boundary Condition Object
    SunExposed,                   !- Sun Exposure
    WindExposed,                  !- Wind Exposure
    autocalculate,           !- View Factor to Ground
    4,                       !- Number of Vertices
    0.0000, 8.0000, 3.5000,
    0.0000, 0.00, 3.5000,
    0.0000, 0.00, 0.0000,
    0.0000, 8.0000, 0.0000;
  FenestrationSurface:Detailed,
    F1_zone_WestWindow,              !- Name
    Window,                  !- Surface Type
    ExteriorWindow,          !- Construction Name
    F1_zone_WestWall,             !- Building Surface Name
    ,                        !- Outside Boundary Condition Object
    autocalculate,           !- View Factor to Ground
    ,                        !- Frame and Divider Name
    1,                       !- Multiplier
    4,                       !- Number of Vertices
    0.0000, 7.7375, 2.6600,
    0.0000, 0.2625, 2.6600,
    0.0000, 0.2625, 0.5600,
    0.0000, 7.7375, 0.5600;

  Zone,
    F1_zone_2,          !- Name
    0,                     !- Direction of Relative North (deg)
    0.7500,        !- X Origin (m)
    0,                     !- Y Origin (m)
    0.0000,              !- Z Origin (m)
    1,                     !- Type
    1,                     !- Multiplier
    autocalculate,         !- Ceiling Height (m)
    autocalculate;         !- Volume (m3)

  BuildingSurface:Detailed,
    F1_zone_2_Floor,            !- Name
    Floor,                   !- Surface Type
    ConcreteFloor,                 !- Construction Name
    F1_zone_2,                  !- Zone Name
    ,                        !- Space Name
    Ground,                    !- Outside Boundary Condition
    ,                !- Outside Boundary Condition Object
    NoSun,                   !- Sun Exposure
    NoWind,                  !- Wind Exposure
    0.0,                     !- View Factor to Ground
    4,                       !- Number of Vertices
    0.7500, 0.00, 0.0000,
    0.7500, 8.0000, 0.0000,
    2.5000, 8.0000, 0.0000,
    2.5000, 0.00, 0.0000;

  BuildingSurface:Detailed,
    F1_zone_2_Roof,             !- Name
    Roof,                    !- Surface Type
    Roof,                 !- Construction Name
    F1_zone_2,                  !- Zone Name
    ,                        !- Space Name
    Outdoors,                !- Outside Boundary Condition
    ,                        !- Outside Boundary Condition Object
    SunExposed,              !- Sun Exposure
    WindExposed,             !- Wind Exposure
    0.0,                     !- View Factor to Ground
    4,                       !- Number of Vertices
    0.7500, 8.0000, 3.5000,
    2.5000, 8.0000, 3.5000,
    2.5000, 0.00, 3.5000,
    0.7500, 0.00, 3.5000;

  BuildingSurface:Detailed,
    F1_zone_2_SouthWall,             !- Name
    Wall,                    !- Surface Type
    ExteriorWall,                 !- Construction Name
    F1_zone_2,                  !- Zone Name
    ,                        !- Space Name
    Outdoors,                    !- Outside Boundary Condition
    ,                !- Outside Boundary Condition Object
    SunExposed,                   !- Sun Exposure
    WindExposed,                  !- Wind Exposure
    autocalculate,           !- View Factor to Ground
    4,                       !- Number of Vertices
    0.7500, 0.00, 3.5000,
    2.5000, 0.00, 3.5000,
    2.5000, 0.00, 0.0000,
    0.7500, 0.00, 0.0000;
  FenestrationSurface:Detailed,
    F1_zone_2_SouthWindow,              !- Name
    Window,                  !- Surface Type
    ExteriorWindow,          !- Construction Name
    F1_zone_2_SouthWall,             !- Building Surface Name
    ,                        !- Outside Boundary Condition Object
    autocalculate,           !- View Factor to Ground
    ,                        !- Frame and Divider Name
    1,                       !- Multiplier
    4,                       !- Number of Vertices
    1.3625, 0.00, 2.6600,
    1.8875, 0.00, 2.6600,
    1.8875, 0.00, 0.5600,
    1.3625, 0.00, 0.5600;

  BuildingSurface:Detailed,
    F1_zone_2_NorthWall,             !- Name
    Wall,                    !- Surface Type
    ExteriorWall,                 !- Construction Name
    F1_zone_2,                  !- Zone Name
    ,                        !- Space Name
    Outdoors,                    !- Outside Boundary Condition
    ,                !- Outside Boundary Condition Object
    SunExposed,                   !- Sun Exposure
    WindExposed,                  !- Wind Exposure
    autocalculate,           !- View Factor to Ground
    4,                       !- Number of Vertices
    2.5000, 8.0000, 3.5000,
    0.7500, 8.0000, 3.5000,
    0.7500, 8.0000, 0.0000,
    2.5000, 8.0000, 0.0000;
  FenestrationSurface:Detailed,
    F1_zone_2_NorthWindow,              !- Name
    Window,                  !- Surface Type
    ExteriorWindow,          !- Construction Name
    F1_zone_2_NorthWall,             !- Building Surface Name
    ,                        !- Outside Boundary Condition Object
    autocalculate,           !- View Factor to Ground
    ,                        !- Frame and Divider Name
    1,                       !- Multiplier
    4,                       !- Number of Vertices
    1.8875, 8.0000, 2.6600,
    1.3625, 8.0000, 2.6600,
    1.3625, 8.0000, 0.5600,
    1.8875, 8.0000, 0.5600;

  BuildingSurface:Detailed,
    F1_zone_2_EastWall,             !- Name
    Wall,                    !- Surface Type
    InteriorWall,                 !- Construction Name
    F1_zone_2,                  !- Zone Name
    ,                        !- Space Name
    Adiabatic,                    !- Outside Boundary Condition
    ,                !- Outside Boundary Condition Object
    NoSun,                   !- Sun Exposure
    NoWind,                  !- Wind Exposure
    autocalculate,           !- View Factor to Ground
    4,                       !- Number of Vertices
    2.5000, 0.00, 3.5000,
    2.5000, 8.0000, 3.5000,
    2.5000, 8.0000, 0.0000,
    2.5000, 0.00, 0.0000;

  BuildingSurface:Detailed,
    F1_zone_2_WestWall,             !- Name
    Wall,                    !- Surface Type
    InteriorWall,                 !- Construction Name
    F1_zone_2,                  !- Zone Name
    ,                        !- Space Name
    Adiabatic,                    !- Outside Boundary Condition
    ,                !- Outside Boundary Condition Object
    NoSun,                   !- Sun Exposure
    NoWind,                  !- Wind Exposure
    autocalculate,           !- View Factor to Ground
    4,                       !- Number of Vertices
    0.7500, 8.0000, 3.5000,
    0.7500, 0.00, 3.5000,
    0.7500, 0.00, 0.0000,
    0.7500, 8.0000, 0.0000;

  Zone,
    F1_4_2,          !- Name
    0,                     !- Direction of Relative North (deg)
    2.5000,        !- X Origin (m)
    0,                     !- Y Origin (m)
    0.0000,              !- Z Origin (m)
    1,                     !- Type
    1,                     !- Multiplier
    autocalculate,         !- Ceiling Height (m)
    autocalculate;         !- Volume (m3)

  BuildingSurface:Detailed,
    F1_4_2_Floor,            !- Name
    Floor,                   !- Surface Type
    ConcreteFloor,                 !- Construction Name
    F1_4_2,                  !- Zone Name
    ,                        !- Space Name
    Ground,                    !- Outside Boundary Condition
    ,                !- Outside Boundary Condition Object
    NoSun,                   !- Sun Exposure
    NoWind,                  !- Wind Exposure
    0.0,                     !- View Factor to Ground
    4,                       !- Number of Vertices
    2.5000, 0.00, 0.0000,
    2.5000, 8.0000, 0.0000,
    5.0000, 8.0000, 0.0000,
    5.0000, 0.00, 0.0000;

  BuildingSurface:Detailed,
    F1_4_2_Roof,             !- Name
    Roof,                    !- Surface Type
    Roof,                 !- Construction Name
    F1_4_2,                  !- Zone Name
    ,                        !- Space Name
    Outdoors,                !- Outside Boundary Condition
    ,                        !- Outside Boundary Condition Object
    SunExposed,              !- Sun Exposure
    WindExposed,             !- Wind Exposure
    0.0,                     !- View Factor to Ground
    4,                       !- Number of Vertices
    2.5000, 8.0000, 3.5000,
    5.0000, 8.0000, 3.5000,
    5.0000, 0.00, 3.5000,
    2.5000, 0.00, 3.5000;

  BuildingSurface:Detailed,
    F1_4_2_SouthWall,             !- Name
    Wall,                    !- Surface Type
    ExteriorWall,                 !- Construction Name
    F1_4_2,                  !- Zone Name
    ,                        !- Space Name
    Outdoors,                    !- Outside Boundary Condition
    ,                !- Outside Boundary Condition Object
    SunExposed,                   !- Sun Exposure
    WindExposed,                  !- Wind Exposure
    autocalculate,           !- View Factor to Ground
    4,                       !- Number of Vertices
    2.5000, 0.00, 3.5000,
    5.0000, 0.00, 3.5000,
    5.0000, 0.00, 0.0000,
    2.5000, 0.00, 0.0000;
  FenestrationSurface:Detailed,
    F1_4_2_SouthWindow,              !- Name
    Window,                  !- Surface Type
    ExteriorWindow,          !- Construction Name
    F1_4_2_SouthWall,             !- Building Surface Name
    ,                        !- Outside Boundary Condition Object
    autocalculate,           !- View Factor to Ground
    ,                        !- Frame and Divider Name
    1,                       !- Multiplier
    4,                       !- Number of Vertices
    3.3750, 0.00, 2.6600,
    4.1250, 0.00, 2.6600,
    4.1250, 0.00, 0.5600,
    3.3750, 0.00, 0.5600;

  BuildingSurface:Detailed,
    F1_4_2_NorthWall,             !- Name
    Wall,                    !- Surface Type
    ExteriorWall,                 !- Construction Name
    F1_4_2,                  !- Zone Name
    ,                        !- Space Name
    Outdoors,                    !- Outside Boundary Condition
    ,                !- Outside Boundary Condition Object
    SunExposed,                   !- Sun Exposure
    WindExposed,                  !- Wind Exposure
    autocalculate,           !- View Factor to Ground
    4,                       !- Number of Vertices
    5.0000, 8.0000, 3.5000,
    2.5000, 8.0000, 3.5000,
    2.5000, 8.0000, 0.0000,
    5.0000, 8.0000, 0.0000;
  FenestrationSurface:Detailed,
    F1_4_2_NorthWindow,              !- Name
    Window,                  !- Surface Type
    ExteriorWindow,          !- Construction Name
    F1_4_2_NorthWall,             !- Building Surface Name
    ,                        !- Outside Boundary Condition Object
    autocalculate,           !- View Factor to Ground
    ,                        !- Frame and Divider Name
    1,                       !- Multiplier
    4,                       !- Number of Vertices
    4.1250, 8.0000, 2.6600,
    3.3750, 8.0000, 2.6600,
    3.3750, 8.0000, 0.5600,
    4.1250, 8.0000, 0.5600;

  BuildingSurface:Detailed,
    F1_4_2_EastWall,             !- Name
    Wall,                    !- Surface Type
    InteriorWall,                 !- Construction Name
    F1_4_2,                  !- Zone Name
    ,                        !- Space Name
    Adiabatic,                    !- Outside Boundary Condition
    ,                !- Outside Boundary Condition Object
    NoSun,                   !- Sun Exposure
    NoWind,                  !- Wind Exposure
    autocalculate,           !- View Factor to Ground
    4,                       !- Number of Vertices
    5.0000, 0.00, 3.5000,
    5.0000, 8.0000, 3.5000,
    5.0000, 8.0000, 0.0000,
    5.0000, 0.00, 0.0000;

  BuildingSurface:Detailed,
    F1_4_2_WestWall,             !- Name
    Wall,                    !- Surface Type
    InteriorWall,                 !- Construction Name
    F1_4_2,                  !- Zone Name
    ,                        !- Space Name
    Adiabatic,                    !- Outside Boundary Condition
    ,                !- Outside Boundary Condition Object
    NoSun,                   !- Sun Exposure
    NoWind,                  !- Wind Exposure
    autocalculate,           !- View Factor to Ground
    4,                       !- Number of Vertices
    2.5000, 8.0000, 3.5000,
    2.5000, 0.00, 3.5000,
    2.5000, 0.00, 0.0000,
    2.5000, 8.0000, 0.0000;

  Zone,
    F1_zone_3,          !- Name
    0,                     !- Direction of Relative North (deg)
    5.0000,        !- X Origin (m)
    0,                     !- Y Origin (m)
    0.0000,              !- Z Origin (m)
    1,                     !- Type
    1,                     !- Multiplier
    autocalculate,         !- Ceiling Height (m)
    autocalculate;         !- Volume (m3)

  BuildingSurface:Detailed,
    F1_zone_3_Floor,            !- Name
    Floor,                   !- Surface Type
    ConcreteFloor,                 !- Construction Name
    F1_zone_3,                  !- Zone Name
    ,                        !- Space Name
    Ground,                    !- Outside Boundary Condition
    ,                !- Outside Boundary Condition Object
    NoSun,                   !- Sun Exposure
    NoWind,                  !- Wind Exposure
    0.0,                     !- View Factor to Ground
    4,                       !- Number of Vertices
    5.0000, 0.00, 0.0000,
    5.0000, 8.0000, 0.0000,
    6.5000, 8.0000, 0.0000,
    6.5000, 0.00, 0.0000;

  BuildingSurface:Detailed,
    F1_zone_3_Roof,             !- Name
    Roof,                    !- Surface Type
    Roof,                 !- Construction Name
    F1_zone_3,                  !- Zone Name
    ,                        !- Space Name
    Outdoors,                !- Outside Boundary Condition
    ,                        !- Outside Boundary Condition Object
    SunExposed,              !- Sun Exposure
    WindExposed,             !- Wind Exposure
    0.0,                     !- View Factor to Ground
    4,                       !- Number of Vertices
    5.0000, 8.0000, 3.5000,
    6.5000, 8.0000, 3.5000,
    6.5000, 0.00, 3.5000,
    5.0000, 0.00, 3.5000;

  BuildingSurface:Detailed,
    F1_zone_3_SouthWall,             !- Name
    Wall,                    !- Surface Type
    ExteriorWall,                 !- Construction Name
    F1_zone_3,                  !- Zone Name
    ,                        !- Space Name
    Outdoors,                    !- Outside Boundary Condition
    ,                !- Outside Boundary Condition Object
    SunExposed,                   !- Sun Exposure
    WindExposed,                  !- Wind Exposure
    autocalculate,           !- View Factor to Ground
    4,                       !- Number of Vertices
    5.0000, 0.00, 3.5000,
    6.5000, 0.00, 3.5000,
    6.5000, 0.00, 0.0000,
    5.0000, 0.00, 0.0000;
  FenestrationSurface:Detailed,
    F1_zone_3_SouthWindow,              !- Name
    Window,                  !- Surface Type
    ExteriorWindow,          !- Construction Name
    F1_zone_3_SouthWall,             !- Building Surface Name
    ,                        !- Outside Boundary Condition Object
    autocalculate,           !- View Factor to Ground
    ,                        !- Frame and Divider Name
    1,                       !- Multiplier
    4,                       !- Number of Vertices
    5.5250, 0.00, 2.6600,
    5.9750, 0.00, 2.6600,
    5.9750, 0.00, 0.5600,
    5.5250, 0.00, 0.5600;

  BuildingSurface:Detailed,
    F1_zone_3_NorthWall,             !- Name
    Wall,                    !- Surface Type
    ExteriorWall,                 !- Construction Name
    F1_zone_3,                  !- Zone Name
    ,                        !- Space Name
    Outdoors,                    !- Outside Boundary Condition
    ,                !- Outside Boundary Condition Object
    SunExposed,                   !- Sun Exposure
    WindExposed,                  !- Wind Exposure
    autocalculate,           !- View Factor to Ground
    4,                       !- Number of Vertices
    6.5000, 8.0000, 3.5000,
    5.0000, 8.0000, 3.5000,
    5.0000, 8.0000, 0.0000,
    6.5000, 8.0000, 0.0000;
  FenestrationSurface:Detailed,
    F1_zone_3_NorthWindow,              !- Name
    Window,                  !- Surface Type
    ExteriorWindow,          !- Construction Name
    F1_zone_3_NorthWall,             !- Building Surface Name
    ,                        !- Outside Boundary Condition Object
    autocalculate,           !- View Factor to Ground
    ,                        !- Frame and Divider Name
    1,                       !- Multiplier
    4,                       !- Number of Vertices
    5.9750, 8.0000, 2.6600,
    5.5250, 8.0000, 2.6600,
    5.5250, 8.0000, 0.5600,
    5.9750, 8.0000, 0.5600;

  BuildingSurface:Detailed,
    F1_zone_3_EastWall,             !- Name
    Wall,                    !- Surface Type
    InteriorWall,                 !- Construction Name
    F1_zone_3,                  !- Zone Name
    ,                        !- Space Name
    Adiabatic,                    !- Outside Boundary Condition
    ,                !- Outside Boundary Condition Object
    NoSun,                   !- Sun Exposure
    NoWind,                  !- Wind Exposure
    autocalculate,           !- View Factor to Ground
    4,                       !- Number of Vertices
    6.5000, 0.00, 3.5000,
    6.5000, 8.0000, 3.5000,
    6.5000, 8.0000, 0.0000,
    6.5000, 0.00, 0.0000;

  BuildingSurface:Detailed,
    F1_zone_3_WestWall,             !- Name
    Wall,                    !- Surface Type
    InteriorWall,                 !- Construction Name
    F1_zone_3,                  !- Zone Name
    ,                        !- Space Name
    Adiabatic,                    !- Outside Boundary Condition
    ,                !- Outside Boundary Condition Object
    NoSun,                   !- Sun Exposure
    NoWind,                  !- Wind Exposure
    autocalculate,           !- View Factor to Ground
    4,                       !- Number of Vertices
    5.0000, 8.0000, 3.5000,
    5.0000, 0.00, 3.5000,
    5.0000, 0.00, 0.0000,
    5.0000, 8.0000, 0.0000;

  Zone,
    F1_zone_4,          !- Name
    0,                     !- Direction of Relative North (deg)
    6.5000,        !- X Origin (m)
    0,                     !- Y Origin (m)
    0.0000,              !- Z Origin (m)
    1,                     !- Type
    1,                     !- Multiplier
    autocalculate,         !- Ceiling Height (m)
    autocalculate;         !- Volume (m3)

  BuildingSurface:Detailed,
    F1_zone_4_Floor,            !- Name
    Floor,                   !- Surface Type
    ConcreteFloor,                 !- Construction Name
    F1_zone_4,                  !- Zone Name
    ,                        !- Space Name
    Ground,                    !- Outside Boundary Condition
    ,                !- Outside Boundary Condition Object
    NoSun,                   !- Sun Exposure
    NoWind,                  !- Wind Exposure
    0.0,                     !- View Factor to Ground
    4,                       !- Number of Vertices
    6.5000, 0.00, 0.0000,
    6.5000, 8.0000, 0.0000,
    7.7500, 8.0000, 0.0000,
    7.7500, 0.00, 0.0000;

  BuildingSurface:Detailed,
    F1_zone_4_Roof,             !- Name
    Roof,                    !- Surface Type
    Roof,                 !- Construction Name
    F1_zone_4,                  !- Zone Name
    ,                        !- Space Name
    Outdoors,                !- Outside Boundary Condition
    ,                        !- Outside Boundary Condition Object
    SunExposed,              !- Sun Exposure
    WindExposed,             !- Wind Exposure
    0.0,                     !- View Factor to Ground
    4,                       !- Number of Vertices
    6.5000, 8.0000, 3.5000,
    7.7500, 8.0000, 3.5000,
    7.7500, 0.00, 3.5000,
    6.5000, 0.00, 3.5000;

  BuildingSurface:Detailed,
    F1_zone_4_SouthWall,             !- Name
    Wall,                    !- Surface Type
    ExteriorWall,                 !- Construction Name
    F1_zone_4,                  !- Zone Name
    ,                        !- Space Name
    Outdoors,                    !- Outside Boundary Condition
    ,                !- Outside Boundary Condition Object
    SunExposed,                   !- Sun Exposure
    WindExposed,                  !- Wind Exposure
    autocalculate,           !- View Factor to Ground
    4,                       !- Number of Vertices
    6.5000, 0.00, 3.5000,
    7.7500, 0.00, 3.5000,
    7.7500, 0.00, 0.0000,
    6.5000, 0.00, 0.0000;
  FenestrationSurface:Detailed,
    F1_zone_4_SouthWindow,              !- Name
    Window,                  !- Surface Type
    ExteriorWindow,          !- Construction Name
    F1_zone_4_SouthWall,             !- Building Surface Name
    ,                        !- Outside Boundary Condition Object
    autocalculate,           !- View Factor to Ground
    ,                        !- Frame and Divider Name
    1,                       !- Multiplier
    4,                       !- Number of Vertices
    6.9375, 0.00, 2.6600,
    7.3125, 0.00, 2.6600,
    7.3125, 0.00, 0.5600,
    6.9375, 0.00, 0.5600;

  BuildingSurface:Detailed,
    F1_zone_4_NorthWall,             !- Name
    Wall,                    !- Surface Type
    ExteriorWall,                 !- Construction Name
    F1_zone_4,                  !- Zone Name
    ,                        !- Space Name
    Outdoors,                    !- Outside Boundary Condition
    ,                !- Outside Boundary Condition Object
    SunExposed,                   !- Sun Exposure
    WindExposed,                  !- Wind Exposure
    autocalculate,           !- View Factor to Ground
    4,                       !- Number of Vertices
    7.7500, 8.0000, 3.5000,
    6.5000, 8.0000, 3.5000,
    6.5000, 8.0000, 0.0000,
    7.7500, 8.0000, 0.0000;
  FenestrationSurface:Detailed,
    F1_zone_4_NorthWindow,              !- Name
    Window,                  !- Surface Type
    ExteriorWindow,          !- Construction Name
    F1_zone_4_NorthWall,             !- Building Surface Name
    ,                        !- Outside Boundary Condition Object
    autocalculate,           !- View Factor to Ground
    ,                        !- Frame and Divider Name
    1,                       !- Multiplier
    4,                       !- Number of Vertices
    7.3125, 8.0000, 2.6600,
    6.9375, 8.0000, 2.6600,
    6.9375, 8.0000, 0.5600,
    7.3125, 8.0000, 0.5600;

  BuildingSurface:Detailed,
    F1_zone_4_EastWall,             !- Name
    Wall,                    !- Surface Type
    InteriorWall,                 !- Construction Name
    F1_zone_4,                  !- Zone Name
    ,                        !- Space Name
    Adiabatic,                    !- Outside Boundary Condition
    ,                !- Outside Boundary Condition Object
    NoSun,                   !- Sun Exposure
    NoWind,                  !- Wind Exposure
    autocalculate,           !- View Factor to Ground
    4,                       !- Number of Vertices
    7.7500, 0.00, 3.5000,
    7.7500, 8.0000, 3.5000,
    7.7500, 8.0000, 0.0000,
    7.7500, 0.00, 0.0000;

  BuildingSurface:Detailed,
    F1_zone_4_WestWall,             !- Name
    Wall,                    !- Surface Type
    InteriorWall,                 !- Construction Name
    F1_zone_4,                  !- Zone Name
    ,                        !- Space Name
    Adiabatic,                    !- Outside Boundary Condition
    ,                !- Outside Boundary Condition Object
    NoSun,                   !- Sun Exposure
    NoWind,                  !- Wind Exposure
    autocalculate,           !- View Factor to Ground
    4,                       !- Number of Vertices
    6.5000, 8.0000, 3.5000,
    6.5000, 0.00, 3.5000,
    6.5000, 0.00, 0.0000,
    6.5000, 8.0000, 0.0000;

  Zone,
    F1_zone_5,          !- Name
    0,                     !- Direction of Relative North (deg)
    7.7500,        !- X Origin (m)
    0,                     !- Y Origin (m)
    0.0000,              !- Z Origin (m)
    1,                     !- Type
    1,                     !- Multiplier
    autocalculate,         !- Ceiling Height (m)
    autocalculate;         !- Volume (m3)

  BuildingSurface:Detailed,
    F1_zone_5_Floor,            !- Name
    Floor,                   !- Surface Type
    ConcreteFloor,                 !- Construction Name
    F1_zone_5,                  !- Zone Name
    ,                        !- Space Name
    Ground,                    !- Outside Boundary Condition
    ,                !- Outside Boundary Condition Object
    NoSun,                   !- Sun Exposure
    NoWind,                  !- Wind Exposure
    0.0,                     !- View Factor to Ground
    4,                       !- Number of Vertices
    7.7500, 0.00, 0.0000,
    7.7500, 8.0000, 0.0000,
    9.2500, 8.0000, 0.0000,
    9.2500, 0.00, 0.0000;

  BuildingSurface:Detailed,
    F1_zone_5_Roof,             !- Name
    Roof,                    !- Surface Type
    Roof,                 !- Construction Name
    F1_zone_5,                  !- Zone Name
    ,                        !- Space Name
    Outdoors,                !- Outside Boundary Condition
    ,                        !- Outside Boundary Condition Object
    SunExposed,              !- Sun Exposure
    WindExposed,             !- Wind Exposure
    0.0,                     !- View Factor to Ground
    4,                       !- Number of Vertices
    7.7500, 8.0000, 3.5000,
    9.2500, 8.0000, 3.5000,
    9.2500, 0.00, 3.5000,
    7.7500, 0.00, 3.5000;

  BuildingSurface:Detailed,
    F1_zone_5_SouthWall,             !- Name
    Wall,                    !- Surface Type
    ExteriorWall,                 !- Construction Name
    F1_zone_5,                  !- Zone Name
    ,                        !- Space Name
    Outdoors,                    !- Outside Boundary Condition
    ,                !- Outside Boundary Condition Object
    SunExposed,                   !- Sun Exposure
    WindExposed,                  !- Wind Exposure
    autocalculate,           !- View Factor to Ground
    4,                       !- Number of Vertices
    7.7500, 0.00, 3.5000,
    9.2500, 0.00, 3.5000,
    9.2500, 0.00, 0.0000,
    7.7500, 0.00, 0.0000;
  FenestrationSurface:Detailed,
    F1_zone_5_SouthWindow,              !- Name
    Window,                  !- Surface Type
    ExteriorWindow,          !- Construction Name
    F1_zone_5_SouthWall,             !- Building Surface Name
    ,                        !- Outside Boundary Condition Object
    autocalculate,           !- View Factor to Ground
    ,                        !- Frame and Divider Name
    1,                       !- Multiplier
    4,                       !- Number of Vertices
    8.2750, 0.00, 2.6600,
    8.7250, 0.00, 2.6600,
    8.7250, 0.00, 0.5600,
    8.2750, 0.00, 0.5600;

  BuildingSurface:Detailed,
    F1_zone_5_NorthWall,             !- Name
    Wall,                    !- Surface Type
    ExteriorWall,                 !- Construction Name
    F1_zone_5,                  !- Zone Name
    ,                        !- Space Name
    Outdoors,                    !- Outside Boundary Condition
    ,                !- Outside Boundary Condition Object
    SunExposed,                   !- Sun Exposure
    WindExposed,                  !- Wind Exposure
    autocalculate,           !- View Factor to Ground
    4,                       !- Number of Vertices
    9.2500, 8.0000, 3.5000,
    7.7500, 8.0000, 3.5000,
    7.7500, 8.0000, 0.0000,
    9.2500, 8.0000, 0.0000;
  FenestrationSurface:Detailed,
    F1_zone_5_NorthWindow,              !- Name
    Window,                  !- Surface Type
    ExteriorWindow,          !- Construction Name
    F1_zone_5_NorthWall,             !- Building Surface Name
    ,                        !- Outside Boundary Condition Object
    autocalculate,           !- View Factor to Ground
    ,                        !- Frame and Divider Name
    1,                       !- Multiplier
    4,                       !- Number of Vertices
    8.7250, 8.0000, 2.6600,
    8.2750, 8.0000, 2.6600,
    8.2750, 8.0000, 0.5600,
    8.7250, 8.0000, 0.5600;

  BuildingSurface:Detailed,
    F1_zone_5_EastWall,             !- Name
    Wall,                    !- Surface Type
    InteriorWall,                 !- Construction Name
    F1_zone_5,                  !- Zone Name
    ,                        !- Space Name
    Adiabatic,                    !- Outside Boundary Condition
    ,                !- Outside Boundary Condition Object
    NoSun,                   !- Sun Exposure
    NoWind,                  !- Wind Exposure
    autocalculate,           !- View Factor to Ground
    4,                       !- Number of Vertices
    9.2500, 0.00, 3.5000,
    9.2500, 8.0000, 3.5000,
    9.2500, 8.0000, 0.0000,
    9.2500, 0.00, 0.0000;

  BuildingSurface:Detailed,
    F1_zone_5_WestWall,             !- Name
    Wall,                    !- Surface Type
    InteriorWall,                 !- Construction Name
    F1_zone_5,                  !- Zone Name
    ,                        !- Space Name
    Adiabatic,                    !- Outside Boundary Condition
    ,                !- Outside Boundary Condition Object
    NoSun,                   !- Sun Exposure
    NoWind,                  !- Wind Exposure
    autocalculate,           !- View Factor to Ground
    4,                       !- Number of Vertices
    7.7500, 8.0000, 3.5000,
    7.7500, 0.00, 3.5000,
    7.7500, 0.00, 0.0000,
    7.7500, 8.0000, 0.0000;

  Zone,
    F1_bathroom,          !- Name
    0,                     !- Direction of Relative North (deg)
    9.2500,        !- X Origin (m)
    0,                     !- Y Origin (m)
    0.0000,              !- Z Origin (m)
    1,                     !- Type
    1,                     !- Multiplier
    autocalculate,         !- Ceiling Height (m)
    autocalculate;         !- Volume (m3)

  BuildingSurface:Detailed,
    F1_bathroom_Floor,            !- Name
    Floor,                   !- Surface Type
    ConcreteFloor,                 !- Construction Name
    F1_bathroom,                  !- Zone Name
    ,                        !- Space Name
    Ground,                    !- Outside Boundary Condition
    ,                !- Outside Boundary Condition Object
    NoSun,                   !- Sun Exposure
    NoWind,                  !- Wind Exposure
    0.0,                     !- View Factor to Ground
    4,                       !- Number of Vertices
    9.2500, 0.00, 0.0000,
    9.2500, 8.0000, 0.0000,
    9.7500, 8.0000, 0.0000,
    9.7500, 0.00, 0.0000;

  BuildingSurface:Detailed,
    F1_bathroom_Roof,             !- Name
    Roof,                    !- Surface Type
    Roof,                 !- Construction Name
    F1_bathroom,                  !- Zone Name
    ,                        !- Space Name
    Outdoors,                !- Outside Boundary Condition
    ,                        !- Outside Boundary Condition Object
    SunExposed,              !- Sun Exposure
    WindExposed,             !- Wind Exposure
    0.0,                     !- View Factor to Ground
    4,                       !- Number of Vertices
    9.2500, 8.0000, 3.5000,
    9.7500, 8.0000, 3.5000,
    9.7500, 0.00, 3.5000,
    9.2500, 0.00, 3.5000;

  BuildingSurface:Detailed,
    F1_bathroom_SouthWall,             !- Name
    Wall,                    !- Surface Type
    ExteriorWall,                 !- Construction Name
    F1_bathroom,                  !- Zone Name
    ,                        !- Space Name
    Outdoors,                    !- Outside Boundary Condition
    ,                !- Outside Boundary Condition Object
    SunExposed,                   !- Sun Exposure
    WindExposed,                  !- Wind Exposure
    autocalculate,           !- View Factor to Ground
    4,                       !- Number of Vertices
    9.2500, 0.00, 3.5000,
    9.7500, 0.00, 3.5000,
    9.7500, 0.00, 0.0000,
    9.2500, 0.00, 0.0000;
  FenestrationSurface:Detailed,
    F1_bathroom_SouthWindow,              !- Name
    Window,                  !- Surface Type
    ExteriorWindow,          !- Construction Name
    F1_bathroom_SouthWall,             !- Building Surface Name
    ,                        !- Outside Boundary Condition Object
    autocalculate,           !- View Factor to Ground
    ,                        !- Frame and Divider Name
    1,                       !- Multiplier
    4,                       !- Number of Vertices
    9.4250, 0.00, 2.6600,
    9.5750, 0.00, 2.6600,
    9.5750, 0.00, 0.5600,
    9.4250, 0.00, 0.5600;

  BuildingSurface:Detailed,
    F1_bathroom_NorthWall,             !- Name
    Wall,                    !- Surface Type
    ExteriorWall,                 !- Construction Name
    F1_bathroom,                  !- Zone Name
    ,                        !- Space Name
    Outdoors,                    !- Outside Boundary Condition
    ,                !- Outside Boundary Condition Object
    SunExposed,                   !- Sun Exposure
    WindExposed,                  !- Wind Exposure
    autocalculate,           !- View Factor to Ground
    4,                       !- Number of Vertices
    9.7500, 8.0000, 3.5000,
    9.2500, 8.0000, 3.5000,
    9.2500, 8.0000, 0.0000,
    9.7500, 8.0000, 0.0000;
  FenestrationSurface:Detailed,
    F1_bathroom_NorthWindow,              !- Name
    Window,                  !- Surface Type
    ExteriorWindow,          !- Construction Name
    F1_bathroom_NorthWall,             !- Building Surface Name
    ,                        !- Outside Boundary Condition Object
    autocalculate,           !- View Factor to Ground
    ,                        !- Frame and Divider Name
    1,                       !- Multiplier
    4,                       !- Number of Vertices
    9.5750, 8.0000, 2.6600,
    9.4250, 8.0000, 2.6600,
    9.4250, 8.0000, 0.5600,
    9.5750, 8.0000, 0.5600;

  BuildingSurface:Detailed,
    F1_bathroom_EastWall,             !- Name
    Wall,                    !- Surface Type
    InteriorWall,                 !- Construction Name
    F1_bathroom,                  !- Zone Name
    ,                        !- Space Name
    Adiabatic,                    !- Outside Boundary Condition
    ,                !- Outside Boundary Condition Object
    NoSun,                   !- Sun Exposure
    NoWind,                  !- Wind Exposure
    autocalculate,           !- View Factor to Ground
    4,                       !- Number of Vertices
    9.7500, 0.00, 3.5000,
    9.7500, 8.0000, 3.5000,
    9.7500, 8.0000, 0.0000,
    9.7500, 0.00, 0.0000;

  BuildingSurface:Detailed,
    F1_bathroom_WestWall,             !- Name
    Wall,                    !- Surface Type
    InteriorWall,                 !- Construction Name
    F1_bathroom,                  !- Zone Name
    ,                        !- Space Name
    Adiabatic,                    !- Outside Boundary Condition
    ,                !- Outside Boundary Condition Object
    NoSun,                   !- Sun Exposure
    NoWind,                  !- Wind Exposure
    autocalculate,           !- View Factor to Ground
    4,                       !- Number of Vertices
    9.2500, 8.0000, 3.5000,
    9.2500, 0.00, 3.5000,
    9.2500, 0.00, 0.0000,
    9.2500, 8.0000, 0.0000;

  Zone,
    F1_zone_6,          !- Name
    0,                     !- Direction of Relative North (deg)
    9.7500,        !- X Origin (m)
    0,                     !- Y Origin (m)
    0.0000,              !- Z Origin (m)
    1,                     !- Type
    1,                     !- Multiplier
    autocalculate,         !- Ceiling Height (m)
    autocalculate;         !- Volume (m3)

  BuildingSurface:Detailed,
    F1_zone_6_Floor,            !- Name
    Floor,                   !- Surface Type
    ConcreteFloor,                 !- Construction Name
    F1_zone_6,                  !- Zone Name
    ,                        !- Space Name
    Ground,                    !- Outside Boundary Condition
    ,                !- Outside Boundary Condition Object
    NoSun,                   !- Sun Exposure
    NoWind,                  !- Wind Exposure
    0.0,                     !- View Factor to Ground
    4,                       !- Number of Vertices
    9.7500, 0.00, 0.0000,
    9.7500, 8.0000, 0.0000,
    10.0000, 8.0000, 0.0000,
    10.0000, 0.00, 0.0000;

  BuildingSurface:Detailed,
    F1_zone_6_Roof,             !- Name
    Roof,                    !- Surface Type
    Roof,                 !- Construction Name
    F1_zone_6,                  !- Zone Name
    ,                        !- Space Name
    Outdoors,                !- Outside Boundary Condition
    ,                        !- Outside Boundary Condition Object
    SunExposed,              !- Sun Exposure
    WindExposed,             !- Wind Exposure
    0.0,                     !- View Factor to Ground
    4,                       !- Number of Vertices
    9.7500, 8.0000, 3.5000,
    10.0000, 8.0000, 3.5000,
    10.0000, 0.00, 3.5000,
    9.7500, 0.00, 3.5000;

  BuildingSurface:Detailed,
    F1_zone_6_SouthWall,             !- Name
    Wall,                    !- Surface Type
    ExteriorWall,                 !- Construction Name
    F1_zone_6,                  !- Zone Name
    ,                        !- Space Name
    Outdoors,                    !- Outside Boundary Condition
    ,                !- Outside Boundary Condition Object
    SunExposed,                   !- Sun Exposure
    WindExposed,                  !- Wind Exposure
    autocalculate,           !- View Factor to Ground
    4,                       !- Number of Vertices
    9.7500, 0.00, 3.5000,
    10.0000, 0.00, 3.5000,
    10.0000, 0.00, 0.0000,
    9.7500, 0.00, 0.0000;
  FenestrationSurface:Detailed,
    F1_zone_6_SouthWindow,              !- Name
    Window,                  !- Surface Type
    ExteriorWindow,          !- Construction Name
    F1_zone_6_SouthWall,             !- Building Surface Name
    ,                        !- Outside Boundary Condition Object
    autocalculate,           !- View Factor to Ground
    ,                        !- Frame and Divider Name
    1,                       !- Multiplier
    4,                       !- Number of Vertices
    9.8375, 0.00, 2.6600,
    9.9125, 0.00, 2.6600,
    9.9125, 0.00, 0.5600,
    9.8375, 0.00, 0.5600;

  BuildingSurface:Detailed,
    F1_zone_6_NorthWall,             !- Name
    Wall,                    !- Surface Type
    ExteriorWall,                 !- Construction Name
    F1_zone_6,                  !- Zone Name
    ,                        !- Space Name
    Outdoors,                    !- Outside Boundary Condition
    ,                !- Outside Boundary Condition Object
    SunExposed,                   !- Sun Exposure
    WindExposed,                  !- Wind Exposure
    autocalculate,           !- View Factor to Ground
    4,                       !- Number of Vertices
    10.0000, 8.0000, 3.5000,
    9.7500, 8.0000, 3.5000,
    9.7500, 8.0000, 0.0000,
    10.0000, 8.0000, 0.0000;
  FenestrationSurface:Detailed,
    F1_zone_6_NorthWindow,              !- Name
    Window,                  !- Surface Type
    ExteriorWindow,          !- Construction Name
    F1_zone_6_NorthWall,             !- Building Surface Name
    ,                        !- Outside Boundary Condition Object
    autocalculate,           !- View Factor to Ground
    ,                        !- Frame and Divider Name
    1,                       !- Multiplier
    4,                       !- Number of Vertices
    9.9125, 8.0000, 2.6600,
    9.8375, 8.0000, 2.6600,
    9.8375, 8.0000, 0.5600,
    9.9125, 8.0000, 0.5600;

  BuildingSurface:Detailed,
    F1_zone_6_EastWall,             !- Name
    Wall,                    !- Surface Type
    ExteriorWall,                 !- Construction Name
    F1_zone_6,                  !- Zone Name
    ,                        !- Space Name
    Outdoors,                    !- Outside Boundary Condition
    ,                !- Outside Boundary Condition Object
    SunExposed,                   !- Sun Exposure
    WindExposed,                  !- Wind Exposure
    autocalculate,           !- View Factor to Ground
    4,                       !- Number of Vertices
    10.0000, 0.00, 3.5000,
    10.0000, 8.0000, 3.5000,
    10.0000, 8.0000, 0.0000,
    10.0000, 0.00, 0.0000;
  FenestrationSurface:Detailed,
    F1_zone_6_EastWindow,              !- Name
    Window,                  !- Surface Type
    ExteriorWindow,          !- Construction Name
    F1_zone_6_EastWall,             !- Building Surface Name
    ,                        !- Outside Boundary Condition Object
    autocalculate,           !- View Factor to Ground
    ,                        !- Frame and Divider Name
    1,                       !- Multiplier
    4,                       !- Number of Vertices
    10.0000, 0.0875, 2.6600,
    10.0000, 7.9125, 2.6600,
    10.0000, 7.9125, 0.5600,
    10.0000, 0.0875, 0.5600;

  BuildingSurface:Detailed,
    F1_zone_6_WestWall,             !- Name
    Wall,                    !- Surface Type
    InteriorWall,                 !- Construction Name
    F1_zone_6,                  !- Zone Name
    ,                        !- Space Name
    Adiabatic,                    !- Outside Boundary Condition
    ,                !- Outside Boundary Condition Object
    NoSun,                   !- Sun Exposure
    NoWind,                  !- Wind Exposure
    autocalculate,           !- View Factor to Ground
    4,                       !- Number of Vertices
    9.7500, 8.0000, 3.5000,
    9.7500, 0.00, 3.5000,
    9.7500, 0.00, 0.0000,
    9.7500, 8.0000, 0.0000;


! ===== SCHEDULES =====

  ScheduleTypeLimits,
    Fraction,                !- Name
    0.0,                     !- Lower Limit Value
    1.0,                     !- Upper Limit Value
    Continuous;              !- Numeric Type

  ScheduleTypeLimits,
    Any Number;              !- Name

  Schedule:Compact,
    Always On,               !- Name
    Fraction,                !- Schedule Type Limits Name
    Through: 12/31,          !- Field 1
    For: AllDays,            !- Field 2
    Until: 24:00, 1.0;      !- Field 3

  Schedule:Compact,
    Always Off,              !- Name
    Fraction,                !- Schedule Type Limits Name
    Through: 12/31,
    For: AllDays,
    Until: 24:00, 0.0;

  Schedule:Compact,
    Residential_Occupancy,   !- Name
    Fraction,                !- Schedule Type Limits Name
    Through: 12/31,
    For: Weekdays,
    Until: 7:00, 1.0,
    Until: 9:00, 0.5,
    Until: 17:00, 0.0,
    Until: 23:00, 1.0,
    Until: 24:00, 1.0,
    For: Weekends Holidays,
    Until: 8:00, 1.0,
    Until: 23:00, 1.0,
    Until: 24:00, 1.0;

  Schedule:Compact,
    Residential_Lighting,    !- Name
    Fraction,                !- Schedule Type Limits Name
    Through: 12/31,
    For: Weekdays,
    Until: 6:00, 0.0,
    Until: 8:00, 0.8,
    Until: 17:00, 0.1,
    Until: 23:00, 0.8,
    Until: 24:00, 0.1,
    For: Weekends Holidays,
    Until: 7:00, 0.0,
    Until: 23:00, 0.6,
    Until: 24:00, 0.1;

  Schedule:Compact,
    Residential_Equipment,   !- Name
    Fraction,                !- Schedule Type Limits Name
    Through: 12/31,
    For: AllDays,
    Until: 24:00, 0.3;

  Schedule:Compact,
    HVAC_Availability,       !- Name
    Fraction,                !- Schedule Type Limits Name
    Through: 12/31,
    For: AllDays,
    Until: 24:00, 1.0;

  ScheduleTypeLimits,
    ControlType,             !- Name
    0,                       !- Lower Limit Value
    4,                       !- Upper Limit Value
    Discrete;                !- Numeric Type

  Schedule:Compact,
    Thermostat_ControlType,  !- Name
    ControlType,             !- Schedule Type Limits Name
    Through: 12/31,
    For: AllDays,
    Until: 24:00, 4;

  Schedule:Compact,
    Activity_Level,          !- Name
    Any Number,              !- Schedule Type Limits Name
    Through: 12/31,
    For: AllDays,
    Until: 24:00, 120;

  Schedule:Compact,
    Heating_Setpoint_Sched,  !- Name
    Any Number,              !- Schedule Type Limits Name
    Through: 12/31,
    For: AllDays,
    Until: 24:00, 20.0;

  Schedule:Compact,
    Cooling_Setpoint_Sched,  !- Name
    Any Number,              !- Schedule Type Limits Name
    Through: 12/31,
    For: AllDays,
    Until: 24:00, 26.0;


! ===== INTERNAL LOADS =====

  People,
    F1_zone_People,           !- Name
    F1_zone,                  !- Zone Name
    Residential_Occupancy,   !- Number of People Schedule Name
    People,                  !- Number of People Calculation Method
    1,            !- Number of People
    ,                        !- People per Floor Area
    ,                        !- Floor Area per Person
    0.3,                     !- Fraction Radiant
    autocalculate,           !- Sensible Heat Fraction
    Activity_Level;          !- Activity Level Schedule Name

  Lights,
    F1_zone_Lights,           !- Name
    F1_zone,                  !- Zone Name
    Residential_Lighting,    !- Schedule Name
    Watts/Area,              !- Design Level Calculation Method
    ,                        !- Lighting Level
    8.0,       !- Watts per Floor Area
    ,                        !- Watts per Person
    0.0,                     !- Return Air Fraction
    0.72,                    !- Fraction Radiant
    0.18,                    !- Fraction Visible
    1.0;                     !- End-Use Subcategory

  ElectricEquipment,
    F1_zone_Equipment,        !- Name
    F1_zone,                  !- Zone Name
    Residential_Equipment,   !- Schedule Name
    Watts/Area,              !- Design Level Calculation Method
    ,                        !- Design Level
    5.0,          !- Watts per Floor Area
    ,                        !- Watts per Person
    0.0,                     !- Fraction Latent
    0.3,                     !- Fraction Radiant
    0.0;                     !- Fraction Lost

  People,
    F1_zone_2_People,           !- Name
    F1_zone_2,                  !- Zone Name
    Residential_Occupancy,   !- Number of People Schedule Name
    People,                  !- Number of People Calculation Method
    1,            !- Number of People
    ,                        !- People per Floor Area
    ,                        !- Floor Area per Person
    0.3,                     !- Fraction Radiant
    autocalculate,           !- Sensible Heat Fraction
    Activity_Level;          !- Activity Level Schedule Name

  Lights,
    F1_zone_2_Lights,           !- Name
    F1_zone_2,                  !- Zone Name
    Residential_Lighting,    !- Schedule Name
    Watts/Area,              !- Design Level Calculation Method
    ,                        !- Lighting Level
    8.0,       !- Watts per Floor Area
    ,                        !- Watts per Person
    0.0,                     !- Return Air Fraction
    0.72,                    !- Fraction Radiant
    0.18,                    !- Fraction Visible
    1.0;                     !- End-Use Subcategory

  ElectricEquipment,
    F1_zone_2_Equipment,        !- Name
    F1_zone_2,                  !- Zone Name
    Residential_Equipment,   !- Schedule Name
    Watts/Area,              !- Design Level Calculation Method
    ,                        !- Design Level
    5.0,          !- Watts per Floor Area
    ,                        !- Watts per Person
    0.0,                     !- Fraction Latent
    0.3,                     !- Fraction Radiant
    0.0;                     !- Fraction Lost

  People,
    F1_4_2_People,           !- Name
    F1_4_2,                  !- Zone Name
    Residential_Occupancy,   !- Number of People Schedule Name
    People,                  !- Number of People Calculation Method
    1,            !- Number of People
    ,                        !- People per Floor Area
    ,                        !- Floor Area per Person
    0.3,                     !- Fraction Radiant
    autocalculate,           !- Sensible Heat Fraction
    Activity_Level;          !- Activity Level Schedule Name

  Lights,
    F1_4_2_Lights,           !- Name
    F1_4_2,                  !- Zone Name
    Residential_Lighting,    !- Schedule Name
    Watts/Area,              !- Design Level Calculation Method
    ,                        !- Lighting Level
    8.0,       !- Watts per Floor Area
    ,                        !- Watts per Person
    0.0,                     !- Return Air Fraction
    0.72,                    !- Fraction Radiant
    0.18,                    !- Fraction Visible
    1.0;                     !- End-Use Subcategory

  ElectricEquipment,
    F1_4_2_Equipment,        !- Name
    F1_4_2,                  !- Zone Name
    Residential_Equipment,   !- Schedule Name
    Watts/Area,              !- Design Level Calculation Method
    ,                        !- Design Level
    5.0,          !- Watts per Floor Area
    ,                        !- Watts per Person
    0.0,                     !- Fraction Latent
    0.3,                     !- Fraction Radiant
    0.0;                     !- Fraction Lost

  People,
    F1_zone_3_People,           !- Name
    F1_zone_3,                  !- Zone Name
    Residential_Occupancy,   !- Number of People Schedule Name
    People,                  !- Number of People Calculation Method
    1,            !- Number of People
    ,                        !- People per Floor Area
    ,                        !- Floor Area per Person
    0.3,                     !- Fraction Radiant
    autocalculate,           !- Sensible Heat Fraction
    Activity_Level;          !- Activity Level Schedule Name

  Lights,
    F1_zone_3_Lights,           !- Name
    F1_zone_3,                  !- Zone Name
    Residential_Lighting,    !- Schedule Name
    Watts/Area,              !- Design Level Calculation Method
    ,                        !- Lighting Level
    8.0,       !- Watts per Floor Area
    ,                        !- Watts per Person
    0.0,                     !- Return Air Fraction
    0.72,                    !- Fraction Radiant
    0.18,                    !- Fraction Visible
    1.0;                     !- End-Use Subcategory

  ElectricEquipment,
    F1_zone_3_Equipment,        !- Name
    F1_zone_3,                  !- Zone Name
    Residential_Equipment,   !- Schedule Name
    Watts/Area,              !- Design Level Calculation Method
    ,                        !- Design Level
    5.0,          !- Watts per Floor Area
    ,                        !- Watts per Person
    0.0,                     !- Fraction Latent
    0.3,                     !- Fraction Radiant
    0.0;                     !- Fraction Lost

  People,
    F1_zone_4_People,           !- Name
    F1_zone_4,                  !- Zone Name
    Residential_Occupancy,   !- Number of People Schedule Name
    People,                  !- Number of People Calculation Method
    1,            !- Number of People
    ,                        !- People per Floor Area
    ,                        !- Floor Area per Person
    0.3,                     !- Fraction Radiant
    autocalculate,           !- Sensible Heat Fraction
    Activity_Level;          !- Activity Level Schedule Name

  Lights,
    F1_zone_4_Lights,           !- Name
    F1_zone_4,                  !- Zone Name
    Residential_Lighting,    !- Schedule Name
    Watts/Area,              !- Design Level Calculation Method
    ,                        !- Lighting Level
    8.0,       !- Watts per Floor Area
    ,                        !- Watts per Person
    0.0,                     !- Return Air Fraction
    0.72,                    !- Fraction Radiant
    0.18,                    !- Fraction Visible
    1.0;                     !- End-Use Subcategory

  ElectricEquipment,
    F1_zone_4_Equipment,        !- Name
    F1_zone_4,                  !- Zone Name
    Residential_Equipment,   !- Schedule Name
    Watts/Area,              !- Design Level Calculation Method
    ,                        !- Design Level
    5.0,          !- Watts per Floor Area
    ,                        !- Watts per Person
    0.0,                     !- Fraction Latent
    0.3,                     !- Fraction Radiant
    0.0;                     !- Fraction Lost

  People,
    F1_zone_5_People,           !- Name
    F1_zone_5,                  !- Zone Name
    Residential_Occupancy,   !- Number of People Schedule Name
    People,                  !- Number of People Calculation Method
    1,            !- Number of People
    ,                        !- People per Floor Area
    ,                        !- Floor Area per Person
    0.3,                     !- Fraction Radiant
    autocalculate,           !- Sensible Heat Fraction
    Activity_Level;          !- Activity Level Schedule Name

  Lights,
    F1_zone_5_Lights,           !- Name
    F1_zone_5,                  !- Zone Name
    Residential_Lighting,    !- Schedule Name
    Watts/Area,              !- Design Level Calculation Method
    ,                        !- Lighting Level
    8.0,       !- Watts per Floor Area
    ,                        !- Watts per Person
    0.0,                     !- Return Air Fraction
    0.72,                    !- Fraction Radiant
    0.18,                    !- Fraction Visible
    1.0;                     !- End-Use Subcategory

  ElectricEquipment,
    F1_zone_5_Equipment,        !- Name
    F1_zone_5,                  !- Zone Name
    Residential_Equipment,   !- Schedule Name
    Watts/Area,              !- Design Level Calculation Method
    ,                        !- Design Level
    5.0,          !- Watts per Floor Area
    ,                        !- Watts per Person
    0.0,                     !- Fraction Latent
    0.3,                     !- Fraction Radiant
    0.0;                     !- Fraction Lost

  People,
    F1_bathroom_People,           !- Name
    F1_bathroom,                  !- Zone Name
    Residential_Occupancy,   !- Number of People Schedule Name
    People,                  !- Number of People Calculation Method
    1,            !- Number of People
    ,                        !- People per Floor Area
    ,                        !- Floor Area per Person
    0.3,                     !- Fraction Radiant
    autocalculate,           !- Sensible Heat Fraction
    Activity_Level;          !- Activity Level Schedule Name

  Lights,
    F1_bathroom_Lights,           !- Name
    F1_bathroom,                  !- Zone Name
    Residential_Lighting,    !- Schedule Name
    Watts/Area,              !- Design Level Calculation Method
    ,                        !- Lighting Level
    8.0,       !- Watts per Floor Area
    ,                        !- Watts per Person
    0.0,                     !- Return Air Fraction
    0.72,                    !- Fraction Radiant
    0.18,                    !- Fraction Visible
    1.0;                     !- End-Use Subcategory

  ElectricEquipment,
    F1_bathroom_Equipment,        !- Name
    F1_bathroom,                  !- Zone Name
    Residential_Equipment,   !- Schedule Name
    Watts/Area,              !- Design Level Calculation Method
    ,                        !- Design Level
    5.0,          !- Watts per Floor Area
    ,                        !- Watts per Person
    0.0,                     !- Fraction Latent
    0.3,                     !- Fraction Radiant
    0.0;                     !- Fraction Lost

  People,
    F1_zone_6_People,           !- Name
    F1_zone_6,                  !- Zone Name
    Residential_Occupancy,   !- Number of People Schedule Name
    People,                  !- Number of People Calculation Method
    1,            !- Number of People
    ,                        !- People per Floor Area
    ,                        !- Floor Area per Person
    0.3,                     !- Fraction Radiant
    autocalculate,           !- Sensible Heat Fraction
    Activity_Level;          !- Activity Level Schedule Name

  Lights,
    F1_zone_6_Lights,           !- Name
    F1_zone_6,                  !- Zone Name
    Residential_Lighting,    !- Schedule Name
    Watts/Area,              !- Design Level Calculation Method
    ,                        !- Lighting Level
    8.0,       !- Watts per Floor Area
    ,                        !- Watts per Person
    0.0,                     !- Return Air Fraction
    0.72,                    !- Fraction Radiant
    0.18,                    !- Fraction Visible
    1.0;                     !- End-Use Subcategory

  ElectricEquipment,
    F1_zone_6_Equipment,        !- Name
    F1_zone_6,                  !- Zone Name
    Residential_Equipment,   !- Schedule Name
    Watts/Area,              !- Design Level Calculation Method
    ,                        !- Design Level
    5.0,          !- Watts per Floor Area
    ,                        !- Watts per Person
    0.0,                     !- Fraction Latent
    0.3,                     !- Fraction Radiant
    0.0;                     !- Fraction Lost


! ===== HVAC (Ideal Loads) =====

  ZoneHVAC:IdealLoadsAirSystem,
    F1_zone_IdealLoads,       !- Name
    HVAC_Availability,       !- Availability Schedule Name
    F1_zone Supply Inlet,     !- Zone Supply Air Node Name
    ,                        !- Zone Exhaust Air Node Name
    ,                        !- System Inlet Air Node Name
    50,                      !- Maximum Heating Supply Air Temperature (C)
    13,                      !- Minimum Cooling Supply Air Temperature (C)
    0.0156,                  !- Maximum Heating Supply Air Humidity Ratio (kgWater/kgDryAir)
    0.0077,                  !- Minimum Cooling Supply Air Humidity Ratio (kgWater/kgDryAir)
    NoLimit,                 !- Heating Limit
    ,                        !- Maximum Heating Air Flow Rate
    ,                        !- Maximum Sensible Heating Capacity
    NoLimit,                 !- Cooling Limit
    ,                        !- Maximum Cooling Air Flow Rate
    ,                        !- Maximum Total Cooling Capacity
    Heating_Setpoint_Sched,  !- Heating Availability Schedule Name
    Cooling_Setpoint_Sched;  !- Cooling Availability Schedule Name

  ZoneHVAC:EquipmentConnections,
    F1_zone,                  !- Zone Name
    F1_zone Equipment List,   !- Zone Conditioning Equipment List Name
    F1_zone Supply Inlet,     !- Zone Air Inlet Node or NodeList Name
    ,                        !- Zone Air Exhaust Node or NodeList Name
    F1_zone Air Node,         !- Zone Air Node Name
    F1_zone Return Node;      !- Zone Return Air Node or NodeList Name

  ZoneHVAC:EquipmentList,
    F1_zone Equipment List,   !- Name
    SequentialLoad,          !- Load Distribution Scheme
    ZoneHVAC:IdealLoadsAirSystem,  !- Zone Equipment 1 Object Type
    F1_zone_IdealLoads,       !- Zone Equipment 1 Name
    1,                       !- Zone Equipment 1 Cooling Sequence
    1,                       !- Zone Equipment 1 Heating or No-Load Sequence
    ,                        !- Zone Equipment 1 Sequential Cooling Fraction Schedule Name
    ;                        !- Zone Equipment 1 Sequential Heating Fraction Schedule Name

  ZoneControl:Thermostat,
    F1_zone_Thermostat,       !- Name
    F1_zone,                  !- Zone Name
    Thermostat_ControlType,  !- Control Type Schedule Name
    ThermostatSetpoint:DualSetpoint,  !- Control 1 Object Type
    F1_zone_DualSetpoint;     !- Control 1 Name

  ThermostatSetpoint:DualSetpoint,
    F1_zone_DualSetpoint,     !- Name
    Heating_Setpoint_Sched,  !- Heating Setpoint Temperature Schedule Name
    Cooling_Setpoint_Sched;  !- Cooling Setpoint Temperature Schedule Name

  ZoneHVAC:IdealLoadsAirSystem,
    F1_zone_2_IdealLoads,       !- Name
    HVAC_Availability,       !- Availability Schedule Name
    F1_zone_2 Supply Inlet,     !- Zone Supply Air Node Name
    ,                        !- Zone Exhaust Air Node Name
    ,                        !- System Inlet Air Node Name
    50,                      !- Maximum Heating Supply Air Temperature (C)
    13,                      !- Minimum Cooling Supply Air Temperature (C)
    0.0156,                  !- Maximum Heating Supply Air Humidity Ratio (kgWater/kgDryAir)
    0.0077,                  !- Minimum Cooling Supply Air Humidity Ratio (kgWater/kgDryAir)
    NoLimit,                 !- Heating Limit
    ,                        !- Maximum Heating Air Flow Rate
    ,                        !- Maximum Sensible Heating Capacity
    NoLimit,                 !- Cooling Limit
    ,                        !- Maximum Cooling Air Flow Rate
    ,                        !- Maximum Total Cooling Capacity
    Heating_Setpoint_Sched,  !- Heating Availability Schedule Name
    Cooling_Setpoint_Sched;  !- Cooling Availability Schedule Name

  ZoneHVAC:EquipmentConnections,
    F1_zone_2,                  !- Zone Name
    F1_zone_2 Equipment List,   !- Zone Conditioning Equipment List Name
    F1_zone_2 Supply Inlet,     !- Zone Air Inlet Node or NodeList Name
    ,                        !- Zone Air Exhaust Node or NodeList Name
    F1_zone_2 Air Node,         !- Zone Air Node Name
    F1_zone_2 Return Node;      !- Zone Return Air Node or NodeList Name

  ZoneHVAC:EquipmentList,
    F1_zone_2 Equipment List,   !- Name
    SequentialLoad,          !- Load Distribution Scheme
    ZoneHVAC:IdealLoadsAirSystem,  !- Zone Equipment 1 Object Type
    F1_zone_2_IdealLoads,       !- Zone Equipment 1 Name
    1,                       !- Zone Equipment 1 Cooling Sequence
    1,                       !- Zone Equipment 1 Heating or No-Load Sequence
    ,                        !- Zone Equipment 1 Sequential Cooling Fraction Schedule Name
    ;                        !- Zone Equipment 1 Sequential Heating Fraction Schedule Name

  ZoneControl:Thermostat,
    F1_zone_2_Thermostat,       !- Name
    F1_zone_2,                  !- Zone Name
    Thermostat_ControlType,  !- Control Type Schedule Name
    ThermostatSetpoint:DualSetpoint,  !- Control 1 Object Type
    F1_zone_2_DualSetpoint;     !- Control 1 Name

  ThermostatSetpoint:DualSetpoint,
    F1_zone_2_DualSetpoint,     !- Name
    Heating_Setpoint_Sched,  !- Heating Setpoint Temperature Schedule Name
    Cooling_Setpoint_Sched;  !- Cooling Setpoint Temperature Schedule Name

  ZoneHVAC:IdealLoadsAirSystem,
    F1_4_2_IdealLoads,       !- Name
    HVAC_Availability,       !- Availability Schedule Name
    F1_4_2 Supply Inlet,     !- Zone Supply Air Node Name
    ,                        !- Zone Exhaust Air Node Name
    ,                        !- System Inlet Air Node Name
    50,                      !- Maximum Heating Supply Air Temperature (C)
    13,                      !- Minimum Cooling Supply Air Temperature (C)
    0.0156,                  !- Maximum Heating Supply Air Humidity Ratio (kgWater/kgDryAir)
    0.0077,                  !- Minimum Cooling Supply Air Humidity Ratio (kgWater/kgDryAir)
    NoLimit,                 !- Heating Limit
    ,                        !- Maximum Heating Air Flow Rate
    ,                        !- Maximum Sensible Heating Capacity
    NoLimit,                 !- Cooling Limit
    ,                        !- Maximum Cooling Air Flow Rate
    ,                        !- Maximum Total Cooling Capacity
    Heating_Setpoint_Sched,  !- Heating Availability Schedule Name
    Cooling_Setpoint_Sched;  !- Cooling Availability Schedule Name

  ZoneHVAC:EquipmentConnections,
    F1_4_2,                  !- Zone Name
    F1_4_2 Equipment List,   !- Zone Conditioning Equipment List Name
    F1_4_2 Supply Inlet,     !- Zone Air Inlet Node or NodeList Name
    ,                        !- Zone Air Exhaust Node or NodeList Name
    F1_4_2 Air Node,         !- Zone Air Node Name
    F1_4_2 Return Node;      !- Zone Return Air Node or NodeList Name

  ZoneHVAC:EquipmentList,
    F1_4_2 Equipment List,   !- Name
    SequentialLoad,          !- Load Distribution Scheme
    ZoneHVAC:IdealLoadsAirSystem,  !- Zone Equipment 1 Object Type
    F1_4_2_IdealLoads,       !- Zone Equipment 1 Name
    1,                       !- Zone Equipment 1 Cooling Sequence
    1,                       !- Zone Equipment 1 Heating or No-Load Sequence
    ,                        !- Zone Equipment 1 Sequential Cooling Fraction Schedule Name
    ;                        !- Zone Equipment 1 Sequential Heating Fraction Schedule Name

  ZoneControl:Thermostat,
    F1_4_2_Thermostat,       !- Name
    F1_4_2,                  !- Zone Name
    Thermostat_ControlType,  !- Control Type Schedule Name
    ThermostatSetpoint:DualSetpoint,  !- Control 1 Object Type
    F1_4_2_DualSetpoint;     !- Control 1 Name

  ThermostatSetpoint:DualSetpoint,
    F1_4_2_DualSetpoint,     !- Name
    Heating_Setpoint_Sched,  !- Heating Setpoint Temperature Schedule Name
    Cooling_Setpoint_Sched;  !- Cooling Setpoint Temperature Schedule Name

  ZoneHVAC:IdealLoadsAirSystem,
    F1_zone_3_IdealLoads,       !- Name
    HVAC_Availability,       !- Availability Schedule Name
    F1_zone_3 Supply Inlet,     !- Zone Supply Air Node Name
    ,                        !- Zone Exhaust Air Node Name
    ,                        !- System Inlet Air Node Name
    50,                      !- Maximum Heating Supply Air Temperature (C)
    13,                      !- Minimum Cooling Supply Air Temperature (C)
    0.0156,                  !- Maximum Heating Supply Air Humidity Ratio (kgWater/kgDryAir)
    0.0077,                  !- Minimum Cooling Supply Air Humidity Ratio (kgWater/kgDryAir)
    NoLimit,                 !- Heating Limit
    ,                        !- Maximum Heating Air Flow Rate
    ,                        !- Maximum Sensible Heating Capacity
    NoLimit,                 !- Cooling Limit
    ,                        !- Maximum Cooling Air Flow Rate
    ,                        !- Maximum Total Cooling Capacity
    Heating_Setpoint_Sched,  !- Heating Availability Schedule Name
    Cooling_Setpoint_Sched;  !- Cooling Availability Schedule Name

  ZoneHVAC:EquipmentConnections,
    F1_zone_3,                  !- Zone Name
    F1_zone_3 Equipment List,   !- Zone Conditioning Equipment List Name
    F1_zone_3 Supply Inlet,     !- Zone Air Inlet Node or NodeList Name
    ,                        !- Zone Air Exhaust Node or NodeList Name
    F1_zone_3 Air Node,         !- Zone Air Node Name
    F1_zone_3 Return Node;      !- Zone Return Air Node or NodeList Name

  ZoneHVAC:EquipmentList,
    F1_zone_3 Equipment List,   !- Name
    SequentialLoad,          !- Load Distribution Scheme
    ZoneHVAC:IdealLoadsAirSystem,  !- Zone Equipment 1 Object Type
    F1_zone_3_IdealLoads,       !- Zone Equipment 1 Name
    1,                       !- Zone Equipment 1 Cooling Sequence
    1,                       !- Zone Equipment 1 Heating or No-Load Sequence
    ,                        !- Zone Equipment 1 Sequential Cooling Fraction Schedule Name
    ;                        !- Zone Equipment 1 Sequential Heating Fraction Schedule Name

  ZoneControl:Thermostat,
    F1_zone_3_Thermostat,       !- Name
    F1_zone_3,                  !- Zone Name
    Thermostat_ControlType,  !- Control Type Schedule Name
    ThermostatSetpoint:DualSetpoint,  !- Control 1 Object Type
    F1_zone_3_DualSetpoint;     !- Control 1 Name

  ThermostatSetpoint:DualSetpoint,
    F1_zone_3_DualSetpoint,     !- Name
    Heating_Setpoint_Sched,  !- Heating Setpoint Temperature Schedule Name
    Cooling_Setpoint_Sched;  !- Cooling Setpoint Temperature Schedule Name

  ZoneHVAC:IdealLoadsAirSystem,
    F1_zone_4_IdealLoads,       !- Name
    HVAC_Availability,       !- Availability Schedule Name
    F1_zone_4 Supply Inlet,     !- Zone Supply Air Node Name
    ,                        !- Zone Exhaust Air Node Name
    ,                        !- System Inlet Air Node Name
    50,                      !- Maximum Heating Supply Air Temperature (C)
    13,                      !- Minimum Cooling Supply Air Temperature (C)
    0.0156,                  !- Maximum Heating Supply Air Humidity Ratio (kgWater/kgDryAir)
    0.0077,                  !- Minimum Cooling Supply Air Humidity Ratio (kgWater/kgDryAir)
    NoLimit,                 !- Heating Limit
    ,                        !- Maximum Heating Air Flow Rate
    ,                        !- Maximum Sensible Heating Capacity
    NoLimit,                 !- Cooling Limit
    ,                        !- Maximum Cooling Air Flow Rate
    ,                        !- Maximum Total Cooling Capacity
    Heating_Setpoint_Sched,  !- Heating Availability Schedule Name
    Cooling_Setpoint_Sched;  !- Cooling Availability Schedule Name

  ZoneHVAC:EquipmentConnections,
    F1_zone_4,                  !- Zone Name
    F1_zone_4 Equipment List,   !- Zone Conditioning Equipment List Name
    F1_zone_4 Supply Inlet,     !- Zone Air Inlet Node or NodeList Name
    ,                        !- Zone Air Exhaust Node or NodeList Name
    F1_zone_4 Air Node,         !- Zone Air Node Name
    F1_zone_4 Return Node;      !- Zone Return Air Node or NodeList Name

  ZoneHVAC:EquipmentList,
    F1_zone_4 Equipment List,   !- Name
    SequentialLoad,          !- Load Distribution Scheme
    ZoneHVAC:IdealLoadsAirSystem,  !- Zone Equipment 1 Object Type
    F1_zone_4_IdealLoads,       !- Zone Equipment 1 Name
    1,                       !- Zone Equipment 1 Cooling Sequence
    1,                       !- Zone Equipment 1 Heating or No-Load Sequence
    ,                        !- Zone Equipment 1 Sequential Cooling Fraction Schedule Name
    ;                        !- Zone Equipment 1 Sequential Heating Fraction Schedule Name

  ZoneControl:Thermostat,
    F1_zone_4_Thermostat,       !- Name
    F1_zone_4,                  !- Zone Name
    Thermostat_ControlType,  !- Control Type Schedule Name
    ThermostatSetpoint:DualSetpoint,  !- Control 1 Object Type
    F1_zone_4_DualSetpoint;     !- Control 1 Name

  ThermostatSetpoint:DualSetpoint,
    F1_zone_4_DualSetpoint,     !- Name
    Heating_Setpoint_Sched,  !- Heating Setpoint Temperature Schedule Name
    Cooling_Setpoint_Sched;  !- Cooling Setpoint Temperature Schedule Name

  ZoneHVAC:IdealLoadsAirSystem,
    F1_zone_5_IdealLoads,       !- Name
    HVAC_Availability,       !- Availability Schedule Name
    F1_zone_5 Supply Inlet,     !- Zone Supply Air Node Name
    ,                        !- Zone Exhaust Air Node Name
    ,                        !- System Inlet Air Node Name
    50,                      !- Maximum Heating Supply Air Temperature (C)
    13,                      !- Minimum Cooling Supply Air Temperature (C)
    0.0156,                  !- Maximum Heating Supply Air Humidity Ratio (kgWater/kgDryAir)
    0.0077,                  !- Minimum Cooling Supply Air Humidity Ratio (kgWater/kgDryAir)
    NoLimit,                 !- Heating Limit
    ,                        !- Maximum Heating Air Flow Rate
    ,                        !- Maximum Sensible Heating Capacity
    NoLimit,                 !- Cooling Limit
    ,                        !- Maximum Cooling Air Flow Rate
    ,                        !- Maximum Total Cooling Capacity
    Heating_Setpoint_Sched,  !- Heating Availability Schedule Name
    Cooling_Setpoint_Sched;  !- Cooling Availability Schedule Name

  ZoneHVAC:EquipmentConnections,
    F1_zone_5,                  !- Zone Name
    F1_zone_5 Equipment List,   !- Zone Conditioning Equipment List Name
    F1_zone_5 Supply Inlet,     !- Zone Air Inlet Node or NodeList Name
    ,                        !- Zone Air Exhaust Node or NodeList Name
    F1_zone_5 Air Node,         !- Zone Air Node Name
    F1_zone_5 Return Node;      !- Zone Return Air Node or NodeList Name

  ZoneHVAC:EquipmentList,
    F1_zone_5 Equipment List,   !- Name
    SequentialLoad,          !- Load Distribution Scheme
    ZoneHVAC:IdealLoadsAirSystem,  !- Zone Equipment 1 Object Type
    F1_zone_5_IdealLoads,       !- Zone Equipment 1 Name
    1,                       !- Zone Equipment 1 Cooling Sequence
    1,                       !- Zone Equipment 1 Heating or No-Load Sequence
    ,                        !- Zone Equipment 1 Sequential Cooling Fraction Schedule Name
    ;                        !- Zone Equipment 1 Sequential Heating Fraction Schedule Name

  ZoneControl:Thermostat,
    F1_zone_5_Thermostat,       !- Name
    F1_zone_5,                  !- Zone Name
    Thermostat_ControlType,  !- Control Type Schedule Name
    ThermostatSetpoint:DualSetpoint,  !- Control 1 Object Type
    F1_zone_5_DualSetpoint;     !- Control 1 Name

  ThermostatSetpoint:DualSetpoint,
    F1_zone_5_DualSetpoint,     !- Name
    Heating_Setpoint_Sched,  !- Heating Setpoint Temperature Schedule Name
    Cooling_Setpoint_Sched;  !- Cooling Setpoint Temperature Schedule Name

  ZoneHVAC:IdealLoadsAirSystem,
    F1_bathroom_IdealLoads,       !- Name
    HVAC_Availability,       !- Availability Schedule Name
    F1_bathroom Supply Inlet,     !- Zone Supply Air Node Name
    ,                        !- Zone Exhaust Air Node Name
    ,                        !- System Inlet Air Node Name
    50,                      !- Maximum Heating Supply Air Temperature (C)
    13,                      !- Minimum Cooling Supply Air Temperature (C)
    0.0156,                  !- Maximum Heating Supply Air Humidity Ratio (kgWater/kgDryAir)
    0.0077,                  !- Minimum Cooling Supply Air Humidity Ratio (kgWater/kgDryAir)
    NoLimit,                 !- Heating Limit
    ,                        !- Maximum Heating Air Flow Rate
    ,                        !- Maximum Sensible Heating Capacity
    NoLimit,                 !- Cooling Limit
    ,                        !- Maximum Cooling Air Flow Rate
    ,                        !- Maximum Total Cooling Capacity
    Heating_Setpoint_Sched,  !- Heating Availability Schedule Name
    Cooling_Setpoint_Sched;  !- Cooling Availability Schedule Name

  ZoneHVAC:EquipmentConnections,
    F1_bathroom,                  !- Zone Name
    F1_bathroom Equipment List,   !- Zone Conditioning Equipment List Name
    F1_bathroom Supply Inlet,     !- Zone Air Inlet Node or NodeList Name
    ,                        !- Zone Air Exhaust Node or NodeList Name
    F1_bathroom Air Node,         !- Zone Air Node Name
    F1_bathroom Return Node;      !- Zone Return Air Node or NodeList Name

  ZoneHVAC:EquipmentList,
    F1_bathroom Equipment List,   !- Name
    SequentialLoad,          !- Load Distribution Scheme
    ZoneHVAC:IdealLoadsAirSystem,  !- Zone Equipment 1 Object Type
    F1_bathroom_IdealLoads,       !- Zone Equipment 1 Name
    1,                       !- Zone Equipment 1 Cooling Sequence
    1,                       !- Zone Equipment 1 Heating or No-Load Sequence
    ,                        !- Zone Equipment 1 Sequential Cooling Fraction Schedule Name
    ;                        !- Zone Equipment 1 Sequential Heating Fraction Schedule Name

  ZoneControl:Thermostat,
    F1_bathroom_Thermostat,       !- Name
    F1_bathroom,                  !- Zone Name
    Thermostat_ControlType,  !- Control Type Schedule Name
    ThermostatSetpoint:DualSetpoint,  !- Control 1 Object Type
    F1_bathroom_DualSetpoint;     !- Control 1 Name

  ThermostatSetpoint:DualSetpoint,
    F1_bathroom_DualSetpoint,     !- Name
    Heating_Setpoint_Sched,  !- Heating Setpoint Temperature Schedule Name
    Cooling_Setpoint_Sched;  !- Cooling Setpoint Temperature Schedule Name

  ZoneHVAC:IdealLoadsAirSystem,
    F1_zone_6_IdealLoads,       !- Name
    HVAC_Availability,       !- Availability Schedule Name
    F1_zone_6 Supply Inlet,     !- Zone Supply Air Node Name
    ,                        !- Zone Exhaust Air Node Name
    ,                        !- System Inlet Air Node Name
    50,                      !- Maximum Heating Supply Air Temperature (C)
    13,                      !- Minimum Cooling Supply Air Temperature (C)
    0.0156,                  !- Maximum Heating Supply Air Humidity Ratio (kgWater/kgDryAir)
    0.0077,                  !- Minimum Cooling Supply Air Humidity Ratio (kgWater/kgDryAir)
    NoLimit,                 !- Heating Limit
    ,                        !- Maximum Heating Air Flow Rate
    ,                        !- Maximum Sensible Heating Capacity
    NoLimit,                 !- Cooling Limit
    ,                        !- Maximum Cooling Air Flow Rate
    ,                        !- Maximum Total Cooling Capacity
    Heating_Setpoint_Sched,  !- Heating Availability Schedule Name
    Cooling_Setpoint_Sched;  !- Cooling Availability Schedule Name

  ZoneHVAC:EquipmentConnections,
    F1_zone_6,                  !- Zone Name
    F1_zone_6 Equipment List,   !- Zone Conditioning Equipment List Name
    F1_zone_6 Supply Inlet,     !- Zone Air Inlet Node or NodeList Name
    ,                        !- Zone Air Exhaust Node or NodeList Name
    F1_zone_6 Air Node,         !- Zone Air Node Name
    F1_zone_6 Return Node;      !- Zone Return Air Node or NodeList Name

  ZoneHVAC:EquipmentList,
    F1_zone_6 Equipment List,   !- Name
    SequentialLoad,          !- Load Distribution Scheme
    ZoneHVAC:IdealLoadsAirSystem,  !- Zone Equipment 1 Object Type
    F1_zone_6_IdealLoads,       !- Zone Equipment 1 Name
    1,                       !- Zone Equipment 1 Cooling Sequence
    1,                       !- Zone Equipment 1 Heating or No-Load Sequence
    ,                        !- Zone Equipment 1 Sequential Cooling Fraction Schedule Name
    ;                        !- Zone Equipment 1 Sequential Heating Fraction Schedule Name

  ZoneControl:Thermostat,
    F1_zone_6_Thermostat,       !- Name
    F1_zone_6,                  !- Zone Name
    Thermostat_ControlType,  !- Control Type Schedule Name
    ThermostatSetpoint:DualSetpoint,  !- Control 1 Object Type
    F1_zone_6_DualSetpoint;     !- Control 1 Name

  ThermostatSetpoint:DualSetpoint,
    F1_zone_6_DualSetpoint,     !- Name
    Heating_Setpoint_Sched,  !- Heating Setpoint Temperature Schedule Name
    Cooling_Setpoint_Sched;  !- Cooling Setpoint Temperature Schedule Name


! ===== OUTPUT =====

  Output:Table:SummaryReports,
    AllSummary;

  Output:Variable,
    *,                       !- Key Value
    Zone Ideal Loads Supply Air Total Heating Energy,  !- Variable Name
    Monthly;                 !- Reporting Frequency

  Output:Variable,
    *,                       !- Key Value
    Zone Ideal Loads Supply Air Total Cooling Energy,  !- Variable Name
    Monthly;                 !- Reporting Frequency

  Output:Variable,
    *,
    Zone Mean Air Temperature,
    Monthly;

  Output:Meter,
    Electricity:Facility,    !- Key Name
    Monthly;

  Output:Meter,
    NaturalGas:Facility,
    Monthly;
